DIMENSION: 22
EDGE_WEIGHT_TYPE: EXPLICIT
EDGE_WEIGHT_FORMAT: FULL_MATRIX
EDGE_WEIGHT_SECTION:
32767 32767 25 45 32767 6 32767 32767 32767 7 32767 19 32767 50 32767 32767 67 32767 32767 32767 32767 32 
32767 32767 32767 32767 32767 32767 32767 32767 32767 32767 39 52 32767 58 32767 28 32767 32767 32767 8 32767 56 
25 32767 32767 32767 32767 32767 43 32767 32767 8 32767 32767 32767 32767 32767 32767 62 32767 19 32767 32767 41 
45 32767 32767 32767 32767 32767 32767 46 32767 32767 32767 71 32767 32767 28 32767 32767 32767 32767 32767 32767 32767 
32767 32767 32767 32767 32767 32767 32767 32767 32767 32767 32767 32767 32767 32767 32767 32767 32767 32767 89 32767 32767 50 
6 32767 32767 32767 32767 32767 32767 32767 29 47 63 32767 32767 13 30 32767 32767 32767 32767 64 32767 32767 
32767 32767 43 32767 32767 32767 32767 93 32767 34 82 32767 32767 32767 32767 32767 22 32767 32767 81 32767 93 
32767 32767 32767 46 32767 32767 93 32767 14 33 39 32767 32767 32767 23 32767 32767 32767 32767 21 21 2 
32767 32767 32767 32767 32767 29 32767 14 32767 32767 32767 35 32767 15 32767 32767 14 32767 32767 42 32767 32767 
7 32767 8 32767 32767 47 34 33 32767 32767 92 32767 75 32767 32767 32767 32767 32767 44 32767 32767 32767 
32767 39 32767 32767 32767 63 82 39 32767 92 32767 43 77 27 32767 32767 13 32767 32767 32767 32767 35 
19 52 32767 71 32767 32767 32767 32767 35 32767 43 32767 32767 32767 32767 32767 32767 53 32767 32767 32767 32767 
32767 32767 32767 32767 32767 32767 32767 32767 32767 75 77 32767 32767 32767 46 94 32767 71 32767 69 32767 32767 
50 58 32767 32767 32767 13 32767 32767 15 32767 27 32767 32767 32767 57 95 14 51 32767 5 32767 9 
32767 32767 32767 28 32767 30 32767 23 32767 32767 32767 32767 46 57 32767 67 32767 32767 32767 65 32767 32767 
32767 28 32767 32767 32767 32767 32767 32767 32767 32767 32767 32767 94 95 67 32767 32767 39 84 32767 42 54 
67 32767 62 32767 32767 32767 22 32767 14 32767 13 32767 32767 14 32767 32767 32767 32767 15 15 32767 32767 
32767 32767 32767 32767 32767 32767 32767 32767 32767 32767 32767 53 71 51 32767 39 32767 32767 32767 32767 32767 32767 
32767 32767 19 32767 89 32767 32767 32767 32767 44 32767 32767 32767 32767 32767 84 15 32767 32767 32767 32767 32767 
32767 8 32767 32767 32767 64 81 21 42 32767 32767 32767 69 5 65 32767 15 32767 32767 32767 32767 32767 
32767 32767 32767 32767 32767 32767 32767 21 32767 32767 32767 32767 32767 32767 32767 42 32767 32767 32767 32767 32767 32767 
32 56 41 32767 50 32767 93 2 32767 32767 35 32767 32767 9 32767 54 32767 32767 32767 32767 32767 32767 
EOF